Version identifier: 20.1.0.0 | 2020-11-10 | 9bedb6d68
CPXPARAM_Parallel                                1
CPXPARAM_Simplex_Limits_Iterations               10000000
CPXPARAM_MIP_Interval                            100
CPXPARAM_TimeLimit                               900
CPXPARAM_MIP_Tolerances_AbsMIPGap                0
CPXPARAM_MIP_Tolerances_MIPGap                   0
Found incumbent of value 2.4369330e+07 after 0.00 sec. (1.25 ticks)
Tried aggregator 2 times.
MIP Presolve eliminated 1872 rows and 648 columns.
MIP Presolve modified 2520 coefficients.
Aggregator did 1368 substitutions.
Reduced MIP has 8404 rows, 10120 columns, and 35276 nonzeros.
Reduced MIP has 1584 binaries, 0 generals, 0 SOSs, and 0 indicators.
Presolve time = 0.03 sec. (30.07 ticks)
Probing fixed 0 vars, tightened 288 bounds.
Probing time = 0.02 sec. (2.41 ticks)
Tried aggregator 1 time.
Detecting symmetries...
MIP Presolve modified 288 coefficients.
Reduced MIP has 8404 rows, 10120 columns, and 35276 nonzeros.
Reduced MIP has 2010 binaries, 0 generals, 0 SOSs, and 0 indicators.
Presolve time = 0.02 sec. (19.17 ticks)
Probing time = 0.01 sec. (3.23 ticks)
Clique table members: 1152.
MIP emphasis: balance optimality and feasibility.
MIP search method: dynamic search.
Parallel mode: deterministic, using up to 2 threads.
Root relaxation solution time = 0.79 sec. (364.60 ticks)

        Nodes                                         Cuts/
   Node  Left     Objective  IInf  Best Integer    Best Bound    ItCnt     Gap

*     0+    0                       2.43693e+07 -2383180.2200           109.78%
*     0+    0                     -1371003.0747 -2383180.2200            73.83%
      0     0 -1378992.1024   507 -1371003.0747 -1378992.1024     4952    0.58%
*     0+    0                     -1374359.5295 -1378992.1024             0.34%
*     0+    0                     -1374414.7027 -1378992.1024             0.33%
      0     0 -1376063.5086   133 -1374414.7027    Cuts: 2180     7689    0.12%
*     0+    0                     -1374923.8006 -1376063.5086             0.08%
      0     0 -1375808.0077   128 -1374923.8006     Cuts: 438     8388    0.06%
      0     0 -1375725.7874   429 -1374923.8006     Cuts: 477     9000    0.06%
*     0+    0                     -1375428.3505 -1375725.7874             0.02%
      0     0 -1375709.4481   311 -1375428.3505     Cuts: 278     9384    0.02%
*     0+    0                     -1375668.4564 -1375709.4481             0.00%
      0     0 -1375702.2173   211 -1375668.4564     Cuts: 235     9706    0.00%
Detecting symmetries...
      0     0 -1375700.4723   267 -1375668.4564     Cuts: 104     9814    0.00%
*     0+    0                     -1375669.9824 -1375700.4723             0.00%
      0     0 -1375700.0207   169 -1375669.9824      Cuts: 34     9869    0.00%
      0     0 -1375699.2483   231 -1375669.9824      Cuts: 24     9887    0.00%
*     0+    0                     -1375672.5535 -1375699.2483             0.00%
*     0+    0                     -1375673.9406 -1375699.2483             0.00%
Detecting symmetries...
      0     2 -1375699.2436   181 -1375673.9406 -1375699.2483     9902    0.00%
Elapsed time = 8.84 sec. (5134.16 ticks, tree = 0.02 MB, solutions = 12)

Clique cuts applied:  44
Cover cuts applied:  63
Implied bound cuts applied:  1118
Flow cuts applied:  154
Mixed integer rounding cuts applied:  277
Flow path cuts applied:  50
Multi commodity flow cuts applied:  2
Lift and project cuts applied:  2
Gomory fractional cuts applied:  2

Root node processing (before b&c):
  Real time             =    8.80 sec. (5109.76 ticks)
Parallel b&c, 2 threads:
  Real time             =    0.28 sec. (222.92 ticks)
  Sync time (average)   =    0.10 sec.
  Wait time (average)   =    0.00 sec.
                          ------------
Total (root+branch&cut) =    9.08 sec. (5332.68 ticks)

Optimal integer solution found
Solution value = 0.000000

CPLEX Error  1217: No solution exists.
Simplex iterations = 0


Version identifier: 20.1.0.0 | 2020-11-10 | 9bedb6d68
CPXPARAM_Parallel                                1
CPXPARAM_Simplex_Limits_Iterations               10000000
CPXPARAM_MIP_Interval                            100
CPXPARAM_TimeLimit                               900
CPXPARAM_MIP_Tolerances_AbsMIPGap                0
CPXPARAM_MIP_Tolerances_MIPGap                   0
Problem is feasible; no conflict available.
Version identifier: 20.1.0.0 | 2020-11-10 | 9bedb6d68
CPXPARAM_Parallel                                1
CPXPARAM_Simplex_Limits_Iterations               10000000
CPXPARAM_MIP_Interval                            100
CPXPARAM_TimeLimit                               900
CPXPARAM_MIP_Tolerances_AbsMIPGap                0
CPXPARAM_MIP_Tolerances_MIPGap                   0
Tried aggregator 2 times.
MIP Presolve eliminated 1895 rows and 546 columns.
MIP Presolve modified 2275 coefficients.
Aggregator did 1683 substitutions.
Reduced MIP has 8492 rows, 10758 columns, and 37436 nonzeros.
Reduced MIP has 1584 binaries, 0 generals, 0 SOSs, and 0 indicators.
Presolve time = 0.03 sec. (29.92 ticks)
Found incumbent of value 2.3944716e+10 after 0.05 sec. (41.82 ticks)
Probing fixed 0 vars, tightened 288 bounds.
Probing time = 0.01 sec. (2.69 ticks)
Tried aggregator 1 time.
Detecting symmetries...
MIP Presolve modified 288 coefficients.
Reduced MIP has 8492 rows, 10758 columns, and 37436 nonzeros.
Reduced MIP has 2010 binaries, 0 generals, 0 SOSs, and 0 indicators.
Presolve time = 0.03 sec. (19.21 ticks)
Probing time = 0.01 sec. (3.62 ticks)
Clique table members: 1152.
MIP emphasis: balance optimality and feasibility.
MIP search method: dynamic search.
Parallel mode: deterministic, using up to 2 threads.
Root relaxation solution time = 0.44 sec. (267.72 ticks)

        Nodes                                         Cuts/
   Node  Left     Objective  IInf  Best Integer    Best Bound    ItCnt     Gap

*     0+    0                       2.39447e+10  -2.45256e+07           100.10%
*     0+    0                     -1241216.7717  -2.45256e+07              --- 
      0     0 -1290837.4835   542 -1241216.7717 -1290837.4835     6177    4.00%
*     0+    0                     -1279459.4980 -1290837.4835             0.89%
*     0+    0                     -1280995.4405 -1290837.4835             0.77%
      0     0 -1285630.8078   463 -1280995.4405    Cuts: 1666     9369    0.36%
      0     0 -1284303.4898   582 -1280995.4405    Cuts: 1717    11076    0.26%
      0     0 -1283906.1137   421 -1280995.4405    Cuts: 1095    12118    0.23%
*     0+    0                     -1283582.7509 -1283906.1137             0.03%
      0     0 -1283841.5230   558 -1283582.7509     Cuts: 599    12995    0.02%
      0     0 -1283788.4850   243 -1283582.7509     Cuts: 297    13302    0.02%
*     0+    0                     -1283684.8404 -1283788.4850             0.01%
Detecting symmetries...
      0     0 -1283777.5498   470 -1283684.8404      Cuts: 44    13573    0.01%
*     0+    0                     -1283724.0513 -1283777.5498             0.00%
*     0+    0                     -1283731.5323 -1283777.5498             0.00%
      0     0 -1283758.1668   242 -1283731.5323      Cuts: 96    13728    0.00%
      0     0 -1283753.0034   258 -1283731.5323      Cuts: 36    13895    0.00%
*     0+    0                     -1283731.6980 -1283753.0034             0.00%
      0     0  -1.00000e+75     0 -1283731.6980 -1283753.0034    13895    0.00%
Detecting symmetries...
      0     2 -1283753.0034   258 -1283731.6980 -1283753.0034    13895    0.00%
Elapsed time = 10.56 sec. (6129.82 ticks, tree = 0.02 MB, solutions = 9)
*    11     1      integral     0 -1283731.6983 -1283745.8455    15158    0.00%

Clique cuts applied:  41
Cover cuts applied:  32
Implied bound cuts applied:  1279
Flow cuts applied:  226
Mixed integer rounding cuts applied:  542
Flow path cuts applied:  10
Multi commodity flow cuts applied:  1
Gomory fractional cuts applied:  8

Root node processing (before b&c):
  Real time             =   10.46 sec. (6052.15 ticks)
Parallel b&c, 2 threads:
  Real time             =    1.44 sec. (1003.78 ticks)
  Sync time (average)   =    0.39 sec.
  Wait time (average)   =    0.00 sec.
                          ------------
Total (root+branch&cut) =   11.90 sec. (7055.93 ticks)

Optimal integer solution found
Solution value = 0.000000

CPLEX Error  1217: No solution exists.
Simplex iterations = 0


Version identifier: 20.1.0.0 | 2020-11-10 | 9bedb6d68
CPXPARAM_Parallel                                1
CPXPARAM_Simplex_Limits_Iterations               10000000
CPXPARAM_MIP_Interval                            100
CPXPARAM_TimeLimit                               900
CPXPARAM_MIP_Tolerances_AbsMIPGap                0
CPXPARAM_MIP_Tolerances_MIPGap                   0
Problem is feasible; no conflict available.
Version identifier: 20.1.0.0 | 2020-11-10 | 9bedb6d68
CPXPARAM_Parallel                                1
CPXPARAM_Simplex_Limits_Iterations               10000000
CPXPARAM_MIP_Interval                            100
CPXPARAM_TimeLimit                               900
CPXPARAM_MIP_Tolerances_AbsMIPGap                0
CPXPARAM_MIP_Tolerances_MIPGap                   0
Tried aggregator 2 times.
MIP Presolve eliminated 2044 rows and 693 columns.
MIP Presolve modified 2312 coefficients.
Aggregator did 1536 substitutions.
Reduced MIP has 8490 rows, 10591 columns, and 36653 nonzeros.
Reduced MIP has 1584 binaries, 0 generals, 0 SOSs, and 0 indicators.
Presolve time = 0.04 sec. (30.72 ticks)
Found incumbent of value 3.5284790e+10 after 0.05 sec. (42.44 ticks)
Probing fixed 0 vars, tightened 288 bounds.
Probing time = 0.01 sec. (2.68 ticks)
Tried aggregator 1 time.
Detecting symmetries...
MIP Presolve modified 288 coefficients.
Reduced MIP has 8490 rows, 10591 columns, and 36653 nonzeros.
Reduced MIP has 2010 binaries, 0 generals, 0 SOSs, and 0 indicators.
Presolve time = 0.03 sec. (19.12 ticks)
Probing time = 0.01 sec. (3.62 ticks)
Clique table members: 1152.
MIP emphasis: balance optimality and feasibility.
MIP search method: dynamic search.
Parallel mode: deterministic, using up to 2 threads.
Root relaxation solution time = 0.53 sec. (322.59 ticks)

        Nodes                                         Cuts/
   Node  Left     Objective  IInf  Best Integer    Best Bound    ItCnt     Gap

*     0+    0                       3.52848e+10  -2.45256e+07           100.07%
*     0+    0                     -1253925.5507  -2.45256e+07              --- 
      0     0 -1282621.3982   566 -1253925.5507 -1282621.3982     5977    2.29%
*     0+    0                     -1271347.7738 -1282621.3982             0.89%
*     0+    0                     -1272170.7398 -1282621.3982             0.82%
      0     0 -1276203.7766   500 -1272170.7398    Cuts: 1844     9505    0.32%
      0     0 -1275056.0946   439 -1272170.7398    Cuts: 1879    11409    0.23%
*     0+    0                     -1273806.3598 -1275056.0946             0.10%
      0     0 -1274852.7819   497 -1273806.3598    Cuts: 1172    12673    0.08%
*     0+    0                     -1274746.2426 -1274852.7819             0.01%
      0     0 -1274835.9879   425 -1274746.2426     Cuts: 420    13149    0.01%
*     0+    0                     -1274782.3455 -1274835.9879             0.00%
      0     0 -1274833.5302   212 -1274782.3455     Cuts: 164    13313    0.00%
*     0+    0                     -1274792.3455 -1274833.5302             0.00%
Detecting symmetries...
      0     0 -1274832.0083    40 -1274792.3455      Cuts: 16    13368    0.00%
*     0+    0                     -1274795.6132 -1274832.0083             0.00%
      0     0 -1274828.9193    99 -1274795.6132       Cuts: 5    13397    0.00%
      0     0 -1274828.3917    53 -1274795.6132     Cuts: 128    13412    0.00%
      0     0 -1274826.3631    52 -1274795.6132       Cuts: 7    13466    0.00%
*     0+    0                     -1274803.8733 -1274826.3631             0.00%
*     0+    0                     -1274806.4774 -1274826.3631             0.00%
      0     0  -1.00000e+75     0 -1274806.4774 -1274826.3631    13466    0.00%
Detecting symmetries...
      0     2 -1274826.3631    52 -1274806.4774 -1274826.3631    13466    0.00%
Elapsed time = 9.75 sec. (5747.90 ticks, tree = 0.02 MB, solutions = 15)
*    10+    6                     -1274809.0849 -1274826.3023             0.00%
*    24     8      integral     0 -1274809.4566 -1274821.3651    15224    0.00%

Clique cuts applied:  38
Cover cuts applied:  53
Implied bound cuts applied:  1399
Flow cuts applied:  204
Mixed integer rounding cuts applied:  627
Flow path cuts applied:  67
Multi commodity flow cuts applied:  1
Gomory fractional cuts applied:  8

Root node processing (before b&c):
  Real time             =    9.67 sec. (5699.59 ticks)
Parallel b&c, 2 threads:
  Real time             =    1.23 sec. (720.75 ticks)
  Sync time (average)   =    0.10 sec.
  Wait time (average)   =    0.00 sec.
                          ------------
Total (root+branch&cut) =   10.90 sec. (6420.33 ticks)

Optimal integer solution found
Solution value = 0.000000

CPLEX Error  1217: No solution exists.
Simplex iterations = 0


Version identifier: 20.1.0.0 | 2020-11-10 | 9bedb6d68
CPXPARAM_Parallel                                1
CPXPARAM_Simplex_Limits_Iterations               10000000
CPXPARAM_MIP_Interval                            100
CPXPARAM_TimeLimit                               900
CPXPARAM_MIP_Tolerances_AbsMIPGap                0
CPXPARAM_MIP_Tolerances_MIPGap                   0
Problem is feasible; no conflict available.
